autotest/utils/dewater.mps
GWM MPS
ROWS   
 L  ROW   1
 L  ROW   2
 L  ROW   3
 L  ROW   4
 L  ROW   5
 L  ROW   6
 L  ROW   7
 L  ROW   8
 L  ROW   9
 L  ROW  10
 N  OBJ
COLUMNS
    Q1        ROW   1    -0.1019E-01
    Q1        ROW   2    -0.1031E-01
    Q1        ROW   3    -0.7826E-02
    Q1        ROW   4    -0.9912E-02
    Q1        ROW   5    -0.7559E-02
    Q1        ROW   6    -0.7316E-02
    Q1        ROW   7    -0.7420E-02
    Q1        ROW   8    -0.6283E-02
    Q1        ROW   9    -0.4792E-02
    Q1        ROW  10    -0.4632E-02
    Q1        OBJ         0.1000E+04
    Q2        ROW   1    -0.7789E-02
    Q2        ROW   2    -0.1034E-01
    Q2        ROW   3    -0.1031E-01
    Q2        ROW   4    -0.7523E-02
    Q2        ROW   5    -0.1002E-01
    Q2        ROW   6    -0.6423E-02
    Q2        ROW   7    -0.7455E-02
    Q2        ROW   8    -0.6683E-02
    Q2        ROW   9    -0.4940E-02
    Q2        ROW  10    -0.4877E-02
    Q2        OBJ         0.1000E+04
    Q3        ROW   1    -0.7970E-02
    Q3        ROW   2    -0.9296E-02
    Q3        ROW   3    -0.8043E-02
    Q3        ROW   4    -0.8945E-02
    Q3        ROW   5    -0.9016E-02
    Q3        ROW   6    -0.7596E-02
    Q3        ROW   7    -0.8906E-02
    Q3        ROW   8    -0.7345E-02
    Q3        ROW   9    -0.5347E-02
    Q3        ROW  10    -0.5196E-02
    Q3        OBJ         0.1000E+04
    Q4        ROW   1    -0.7505E-02
    Q4        ROW   2    -0.7611E-02
    Q4        ROW   3    -0.6638E-02
    Q4        ROW   4    -0.9723E-02
    Q4        ROW   5    -0.7379E-02
    Q4        ROW   6    -0.9614E-02
    Q4        ROW   7    -0.9719E-02
    Q4        ROW   8    -0.7594E-02
    Q4        ROW   9    -0.5689E-02
    Q4        ROW  10    -0.5416E-02
    Q4        OBJ         0.1000E+04
    Q5        ROW   1    -0.6602E-02
    Q5        ROW   2    -0.7647E-02
    Q5        ROW   3    -0.7611E-02
    Q5        ROW   4    -0.7344E-02
    Q5        ROW   5    -0.9829E-02
    Q5        ROW   6    -0.7240E-02
    Q5        ROW   7    -0.9753E-02
    Q5        ROW   8    -0.8833E-02
    Q5        ROW   9    -0.5956E-02
    Q5        ROW  10    -0.5859E-02
    Q5        OBJ         0.1000E+04
    Q6        ROW   1    -0.5175E-02
    Q6        ROW   2    -0.5796E-02
    Q6        ROW   3    -0.5999E-02
    Q6        ROW   4    -0.5796E-02
    Q6        ROW   5    -0.7474E-02
    Q6        ROW   6    -0.6362E-02
    Q6        ROW   7    -0.8329E-02
    Q6        ROW   8    -0.1105E-01
    Q6        ROW   9    -0.7420E-02
    Q6        ROW  10    -0.7584E-02
    Q6        OBJ         0.1000E+04
    Q7        ROW   1    -0.4633E-02
    Q7        ROW   2    -0.4946E-02
    Q7        ROW   3    -0.4913E-02
    Q7        ROW   4    -0.5348E-02
    Q7        ROW   5    -0.5823E-02
    Q7        ROW   6    -0.6319E-02
    Q7        ROW   7    -0.7345E-02
    Q7        ROW   8    -0.8906E-02
    Q7        ROW   9    -0.1142E-01
    Q7        ROW  10    -0.1002E-01
    Q7        OBJ         0.1000E+04
RHS    
    RHS       ROW   1    -0.2172E+02
    RHS       ROW   2    -0.2034E+02
    RHS       ROW   3    -0.1897E+02
    RHS       ROW   4    -0.2172E+02
    RHS       ROW   5    -0.1897E+02
    RHS       ROW   6    -0.2172E+02
    RHS       ROW   7    -0.2034E+02
    RHS       ROW   8    -0.1966E+02
    RHS       ROW   9    -0.1966E+02
    RHS       ROW  10    -0.1897E+02
BOUNDS 
 UP BOUND     Q1          0.2000E+05
 UP BOUND     Q2          0.2000E+05
 UP BOUND     Q3          0.2000E+05
 UP BOUND     Q4          0.2000E+05
 UP BOUND     Q5          0.2000E+05
 UP BOUND     Q6          0.2000E+05
 UP BOUND     Q7          0.2000E+05
ENDATA 
